c A SAT instance generated from a 3-CNF formula that had 24 clauses and 6 variables
p cnf 6 24
-1 3 -2 0
2 5 1 0
-4 -6 5 0
1 2 4 0
-4 -1 -5 0
-5 6 -3 0
-4 -2 5 0
6 -2 4 0
1 6 -3 0
-4 2 6 0
-1 6 -3 0
-3 -6 -5 0
-6 5 -3 0
-2 5 -1 0
4 5 -3 0
-3 1 6 0
6 -3 -1 0
5 -1 -6 0
-4 -6 -2 0
-6 -4 -3 0
5 2 -4 0
-1 -2 -4 0
4 3 1 0
-2 5 -1 0
